<number of tasks>
250

<cycle time>
1000

<order strength>
0.896


<task times>
1 52
2 55
3 37
4 57
5 133
6 49
7 90
8 76
9 148
10 51
11 71
12 44
13 194
14 30
15 223
16 51
17 180
18 187
19 167
20 124
21 141
22 180
23 245
24 79
25 81
26 237
27 234
28 130
29 215
30 54
31 33
32 87
33 153
34 53
35 35
36 212
37 98
38 148
39 81
40 263
41 47
42 56
43 81
44 162
45 121
46 91
47 208
48 145
49 114
50 152
51 137
52 96
53 216
54 42
55 187
56 153
57 119
58 140
59 109
60 103
61 70
62 80
63 142
64 71
65 35
66 95
67 151
68 76
69 175
70 272
71 95
72 204
73 222
74 241
75 62
76 164
77 66
78 85
79 205
80 113
81 73
82 94
83 174
84 64
85 140
86 46
87 186
88 95
89 248
90 123
91 71
92 253
93 49
94 198
95 114
96 159
97 127
98 209
99 75
100 130
101 55
102 152
103 131
104 333
105 68
106 240
107 63
108 178
109 147
110 78
111 173
112 196
113 242
114 167
115 141
116 220
117 173
118 170
119 166
120 226
121 56
122 24
123 91
124 147
125 148
126 49
127 159
128 126
129 129
130 45
131 326
132 104
133 399
134 238
135 37
136 33
137 105
138 126
139 93
140 129
141 146
142 110
143 63
144 107
145 143
146 57
147 40
148 87
149 123
150 249
151 69
152 140
153 63
154 20
155 103
156 108
157 89
158 90
159 95
160 136
161 327
162 121
163 142
164 46
165 23
166 101
167 59
168 33
169 152
170 118
171 207
172 167
173 25
174 83
175 101
176 127
177 115
178 122
179 42
180 204
181 146
182 242
183 217
184 217
185 146
186 28
187 32
188 197
189 107
190 109
191 110
192 38
193 99
194 36
195 324
196 48
197 43
198 252
199 116
200 300
201 128
202 155
203 163
204 133
205 25
206 263
207 192
208 41
209 247
210 98
211 119
212 77
213 172
214 148
215 39
216 145
217 177
218 167
219 144
220 89
221 93
222 109
223 212
224 193
225 124
226 168
227 141
228 69
229 111
230 165
231 159
232 126
233 82
234 232
235 55
236 109
237 95
238 37
239 215
240 284
241 192
242 66
243 163
244 70
245 67
246 215
247 73
248 164
249 43
250 223

<precedence relations>
1,2
1,3
1,4
1,5
1,6
2,7
2,8
2,9
2,10
2,11
3,7
3,8
3,9
3,10
3,11
4,7
4,8
4,9
4,10
4,11
5,7
5,8
5,9
5,10
5,11
6,7
6,8
6,9
6,10
6,11
7,12
7,13
7,14
8,12
8,13
8,14
9,12
9,13
9,14
10,12
10,13
10,14
11,12
11,13
11,14
12,15
12,16
12,17
12,18
12,19
12,20
13,15
13,16
13,17
13,18
13,19
13,20
14,15
14,16
14,17
14,18
14,19
14,20
15,21
15,22
15,23
15,24
15,25
15,26
16,21
16,22
16,23
16,24
16,25
16,26
17,21
17,22
17,23
17,25
17,26
18,23
18,24
18,25
19,21
20,21
20,22
21,27
21,29
22,27
22,28
22,29
23,27
23,28
23,29
24,27
24,28
24,29
25,27
25,28
25,29
26,27
27,30
27,31
27,32
27,33
27,34
28,30
28,31
28,32
28,33
28,34
29,30
30,35
30,37
31,35
31,36
31,37
32,35
32,36
32,37
33,35
33,36
33,37
34,35
34,36
34,37
35,38
35,39
35,40
35,41
35,42
36,38
36,39
36,40
36,41
36,42
37,38
37,39
37,40
37,41
37,42
38,43
38,44
38,45
38,46
39,45
39,52
40,43
40,46
41,43
41,44
42,43
42,51
43,47
43,48
43,49
43,52
44,47
44,48
44,49
44,50
44,51
44,52
45,47
45,48
45,49
45,50
45,51
46,47
46,48
46,49
46,50
46,51
46,52
47,53
47,54
48,53
48,57
49,53
49,54
49,55
50,53
50,54
50,55
51,53
51,60
52,57
52,70
53,58
54,59
54,60
54,61
55,56
55,57
55,58
56,59
56,60
56,76
56,77
57,60
57,76
57,91
58,59
58,61
59,79
59,91
60,83
60,93
61,62
61,63
61,64
61,65
62,88
63,89
63,90
63,93
63,97
63,98
64,66
65,66
66,67
66,68
66,69
66,70
66,71
67,72
67,74
67,78
68,72
68,73
68,77
69,72
69,73
70,72
70,73
71,125
71,147
71,162
72,75
72,85
73,76
73,78
74,75
74,77
74,85
75,79
75,80
75,81
75,82
75,83
75,84
76,79
76,80
76,81
76,82
77,79
78,79
78,85
79,86
79,87
79,88
79,89
79,90
79,92
79,93
80,86
80,87
80,88
80,92
80,93
81,86
81,89
81,93
82,87
82,90
83,86
83,87
83,88
84,86
84,87
84,91
85,86
86,94
86,97
86,99
87,94
87,95
88,94
88,95
88,96
88,98
89,96
89,117
90,94
90,95
90,96
90,99
91,94
91,95
91,96
91,97
91,98
91,99
92,94
93,94
93,95
93,96
94,102
94,108
95,100
95,101
96,112
97,135
97,140
97,142
97,143
97,144
98,100
98,101
99,101
100,102
100,103
100,104
100,105
101,104
102,106
102,107
102,109
102,114
103,106
103,109
103,114
104,106
104,107
104,108
104,109
105,106
105,107
105,108
105,109
106,110
106,111
106,112
106,113
107,127
108,110
108,114
108,132
109,141
109,145
110,115
110,117
111,115
111,116
111,117
111,118
112,115
112,116
112,129
113,127
114,115
115,120
116,119
116,120
116,124
117,122
117,123
118,119
118,120
118,121
118,122
118,128
119,125
119,133
119,152
120,125
120,126
120,127
121,125
121,133
122,129
123,139
123,148
123,156
124,125
124,126
124,127
124,128
124,133
125,135
126,130
126,131
126,134
127,130
128,130
128,132
128,156
129,130
129,131
129,133
130,136
130,137
131,136
131,140
132,136
133,139
134,136
134,137
134,138
134,139
135,148
135,149
136,141
136,159
137,141
137,142
137,144
137,158
138,141
138,143
139,142
139,168
139,182
140,145
141,148
142,200
143,146
144,147
144,175
145,146
146,149
146,151
146,152
147,192
148,150
148,161
148,164
149,154
149,156
150,153
150,157
151,156
151,173
152,153
152,155
153,160
154,188
155,157
155,158
155,159
155,166
156,184
157,163
157,170
158,161
158,183
159,161
159,162
159,164
160,165
160,166
160,169
161,171
162,169
162,180
163,167
163,168
163,169
163,171
164,169
164,170
165,167
165,168
166,167
167,172
167,176
167,177
168,173
168,174
169,172
169,173
169,174
169,175
170,172
170,173
170,174
171,172
171,175
171,188
172,182
172,210
172,220
173,178
173,179
173,181
173,183
173,188
173,189
174,178
175,178
176,178
177,180
178,185
178,186
178,187
179,247
180,188
180,189
181,221
182,184
183,184
184,190
184,230
185,195
186,190
186,193
186,220
186,232
187,190
187,198
187,222
188,194
188,195
188,196
189,190
189,191
189,192
189,193
190,199
190,200
191,196
191,201
192,199
192,214
192,215
192,223
193,196
193,198
193,201
194,200
194,225
195,197
195,202
196,228
197,203
197,206
197,207
198,204
199,229
200,208
200,209
201,203
201,224
201,249
202,204
202,205
203,214
203,238
204,209
204,211
204,234
205,214
206,210
206,213
208,212
208,217
209,216
209,217
211,229
213,215
215,220
215,222
216,221
216,224
217,218
217,219
217,223
219,228
219,239
220,224
220,243
220,244
221,226
222,225
222,226
222,228
223,224
223,227
225,230
227,235
228,229
229,233
230,231
230,232
232,234
232,236
233,235
233,236
234,239
236,237
236,238
236,240
237,244
237,250
238,241
238,243
239,242
241,248
242,245
242,247
243,245
244,246
245,250
246,249

<end>
